attachment/production/6-arbitrary-recipes/production-arbitrary-recipes-arbitrary.log
GLPSOL: GLPK LP/MIP Solver, v4.65
Parameter(s) specified in the command line:
 -m production-arbitrary-recipes.mod -d production-arbitrary-recipes-arbitrary.dat
 --log production-arbitrary-recipes-arbitrary.log
Reading model section from production-arbitrary-recipes.mod...
46 lines were read
Reading data section from production-arbitrary-recipes-arbitrary.dat...
42 lines were read
Checking (line 5)...
Generating Material_Balance...
Generating Total_Costs_Calc...
Generating Total_Revenue_Calc...
Generating Profit_Calc...
Generating Profit...
Model has been successfully generated
GLPK Simplex Optimizer, v4.65
11 rows, 15 columns, 46 non-zeros
Preprocessing...
7 rows, 5 columns, 26 non-zeros
Scaling...
 A: min|aij| =  1.000e+00  max|aij| =  5.400e+03  ratio =  5.400e+03
GM: min|aij| =  3.996e-01  max|aij| =  2.502e+00  ratio =  6.262e+00
EQ: min|aij| =  1.597e-01  max|aij| =  1.000e+00  ratio =  6.262e+00
Constructing initial basis...
Size of triangular part is 7
      0: obj =   7.330000000e+03 inf =   1.294e+02 (2)
      3: obj =   1.965625000e+03 inf =   0.000e+00 (0)
OPTIMAL LP SOLUTION FOUND
Time used:   0.0 secs
Memory used: 0.1 Mb (144050 bytes)
Total Costs: 30495
Total Revenue: 32460.6
Profit: 1965.62
Volume of recipe MakeP1: 0
Volume of recipe MakeP2: 6.25
Volume of recipe MakeP3: 0
Volume of recipe Comp1: 86.875
Volume of recipe Comp2: 10
Consumption of raw A: 21672.5
Consumption of raw B: 21000
Consumption of raw C: 442500
Consumption of raw D: 200
Production of product P1: 86.875
Production of product P2: 103.125
Production of product P3: 10
Model has been successfully processed
